c File:  san200_0.9_3.clq
c
c SOURCE: Laura Sanchis (laura@cs.colgate.edu)
c
c REFERENCE: "Test Case Construction for the Vertex Cover Problem", 
c DIMACS Workshop on Computational Support for Discrete Mathematics, 
c March, 1992, with additional work in a to be published technical
c report.
c
c 200 vertices 17910 edges 44 max clique
c 200 1990 156 2930 82040 20
p edge 200 17910